c generated by sgen
p cnf 125 260
-2 -3 -4 0
-1 -3 -4 0
-1 -2 -4 0
-1 -2 -3 0
-6 -7 -8 0
-5 -7 -8 0
-5 -6 -8 0
-5 -6 -7 0
-10 -11 -12 0
-9 -11 -12 0
-9 -10 -12 0
-9 -10 -11 0
-14 -15 -16 0
-13 -15 -16 0
-13 -14 -16 0
-13 -14 -15 0
-18 -19 -20 0
-17 -19 -20 0
-17 -18 -20 0
-17 -18 -19 0
-22 -23 -24 0
-21 -23 -24 0
-21 -22 -24 0
-21 -22 -23 0
-26 -27 -28 0
-25 -27 -28 0
-25 -26 -28 0
-25 -26 -27 0
-30 -31 -32 0
-29 -31 -32 0
-29 -30 -32 0
-29 -30 -31 0
-34 -35 -36 0
-33 -35 -36 0
-33 -34 -36 0
-33 -34 -35 0
-38 -39 -40 0
-37 -39 -40 0
-37 -38 -40 0
-37 -38 -39 0
-42 -43 -44 0
-41 -43 -44 0
-41 -42 -44 0
-41 -42 -43 0
-46 -47 -48 0
-45 -47 -48 0
-45 -46 -48 0
-45 -46 -47 0
-50 -51 -52 0
-49 -51 -52 0
-49 -50 -52 0
-49 -50 -51 0
-54 -55 -56 0
-53 -55 -56 0
-53 -54 -56 0
-53 -54 -55 0
-58 -59 -60 0
-57 -59 -60 0
-57 -58 -60 0
-57 -58 -59 0
-62 -63 -64 0
-61 -63 -64 0
-61 -62 -64 0
-61 -62 -63 0
-66 -67 -68 0
-65 -67 -68 0
-65 -66 -68 0
-65 -66 -67 0
-70 -71 -72 0
-69 -71 -72 0
-69 -70 -72 0
-69 -70 -71 0
-74 -75 -76 0
-73 -75 -76 0
-73 -74 -76 0
-73 -74 -75 0
-78 -79 -80 0
-77 -79 -80 0
-77 -78 -80 0
-77 -78 -79 0
-82 -83 -84 0
-81 -83 -84 0
-81 -82 -84 0
-81 -82 -83 0
-86 -87 -88 0
-85 -87 -88 0
-85 -86 -88 0
-85 -86 -87 0
-90 -91 -92 0
-89 -91 -92 0
-89 -90 -92 0
-89 -90 -91 0
-94 -95 -96 0
-93 -95 -96 0
-93 -94 -96 0
-93 -94 -95 0
-98 -99 -100 0
-97 -99 -100 0
-97 -98 -100 0
-97 -98 -99 0
-102 -103 -104 0
-101 -103 -104 0
-101 -102 -104 0
-101 -102 -103 0
-106 -107 -108 0
-105 -107 -108 0
-105 -106 -108 0
-105 -106 -107 0
-110 -111 -112 0
-109 -111 -112 0
-109 -110 -112 0
-109 -110 -111 0
-114 -115 -116 0
-113 -115 -116 0
-113 -114 -116 0
-113 -114 -115 0
-118 -119 -120 0
-117 -119 -120 0
-117 -118 -120 0
-117 -118 -119 0
-121 -122 -123 0
-121 -122 -124 0
-121 -122 -125 0
-121 -123 -124 0
-121 -123 -125 0
-121 -124 -125 0
-122 -123 -124 0
-122 -123 -125 0
-122 -124 -125 0
-123 -124 -125 0
21 38 105 0
120 38 105 0
120 21 105 0
120 21 38 0
45 62 75 0
125 62 75 0
125 45 75 0
125 45 62 0
118 51 13 0
76 51 13 0
76 118 13 0
76 118 51 0
42 53 64 0
4 53 64 0
4 42 64 0
4 42 53 0
121 91 71 0
23 91 71 0
23 121 71 0
23 121 91 0
123 32 15 0
55 32 15 0
55 123 15 0
55 123 32 0
82 22 28 0
93 22 28 0
93 82 28 0
93 82 22 0
87 110 68 0
59 110 68 0
59 87 68 0
59 87 110 0
30 12 57 0
117 12 57 0
117 30 57 0
117 30 12 0
46 102 34 0
109 102 34 0
109 46 34 0
109 46 102 0
39 48 44 0
25 48 44 0
25 39 44 0
25 39 48 0
61 24 80 0
19 24 80 0
19 61 80 0
19 61 24 0
8 103 49 0
9 103 49 0
9 8 49 0
9 8 103 0
56 84 58 0
113 84 58 0
113 56 58 0
113 56 84 0
35 85 72 0
63 85 72 0
63 35 72 0
63 35 85 0
74 69 114 0
66 69 114 0
66 74 114 0
66 74 69 0
108 3 88 0
73 3 88 0
73 108 88 0
73 108 3 0
14 27 116 0
33 27 116 0
33 14 116 0
33 14 27 0
31 17 101 0
1 17 101 0
1 31 101 0
1 31 17 0
104 99 79 0
41 99 79 0
41 104 79 0
41 104 99 0
124 96 5 0
20 96 5 0
20 124 5 0
20 124 96 0
98 112 2 0
94 112 2 0
94 98 2 0
94 98 112 0
86 83 92 0
18 83 92 0
18 86 92 0
18 86 83 0
122 77 10 0
26 77 10 0
26 122 10 0
26 122 77 0
67 106 11 0
81 106 11 0
81 67 11 0
81 67 106 0
90 16 100 0
37 16 100 0
37 90 100 0
37 90 16 0
52 43 36 0
65 43 36 0
65 52 36 0
65 52 43 0
111 95 78 0
119 95 78 0
119 111 78 0
119 111 95 0
107 7 89 0
60 7 89 0
60 107 89 0
60 107 7 0
54 70 50 0
97 70 50 0
97 54 50 0
97 54 70 0
40 115 6 0
40 115 29 0
40 115 47 0
40 6 29 0
40 6 47 0
40 29 47 0
115 6 29 0
115 6 47 0
115 29 47 0
6 29 47 0
